NAME: n30q15G.tsp, 30 nodes, semilla 666
COMMENT: Problema aleatorio de norma euclidea
DIMENSION: 30
CAPACITY: 15
EDGE_WEIGHT_TYPE: EUC_2D
NODE_COORD_SECTION
1   0.0000   0.0000
2 235.0000 -286.0000
3 -447.0000 493.0000
4  60.0000 350.0000
5 -467.0000 374.0000
6 500.0000 390.0000
7 169.0000 153.0000
8 -413.0000 -465.0000
9 254.0000 -350.0000
10 -15.0000 -331.0000
11 -493.0000 341.0000
12 -223.0000  27.0000
13 305.0000 -209.0000
14 -60.0000 443.0000
15  35.0000 331.0000
16 -487.0000 -365.0000
17 -310.0000 -272.0000
18 347.0000  65.0000
19 416.0000 161.0000
20 299.0000 -15.0000
21 -173.0000 157.0000
22 360.0000 -12.0000
23 -291.0000 -184.0000
24 341.0000 299.0000
25 -15.0000 474.0000
26 -294.0000 -340.0000
27 -328.0000 134.0000
28 245.0000 108.0000
29 -403.0000 -282.0000
30 474.0000 -250.0000
DISPLAY_DATA_SECTION:
 1  250  250
 2  367  107
 3   26  496
 4  280  425
 5   16  437
 6  500  445
 7  334  326
 8   43   17
 9  377   75
10  242   84
11    3  420
12  138  263
13  402  145
14  220  471
15  267  415
16    6   67
17   95  114
18  423  282
19  458  330
20  399  242
21  163  328
22  430  244
23  104  158
24  420  399
25  242  487
26  103   80
27   86  317
28  372  304
29   48  109
30  487  125
DEMAND_SECTION
1 -7
2 -7
3 8
4 0
5 6
6 -8
7 8
8 -4
9 0
10 -2
11 8
12 8
13 3
14 10
15 0
16 -9
17 -5
18 8
19 1
20 -6
21 -6
22 -9
23 -1
24 3
25 7
26 -8
27 -9
28 8
29 1
30 2
EOF